\ Model prob_16
\ LP format - for model browsing. Use MPS format to capture full model detail.
Minimize
  5 Chicken + 5 Broccoli + 8 Beef + 3 Rice
Subject To
 R0: 10 Chicken + 4 Broccoli + 13 Beef + 15 Rice >= 66
 R1: 17 Chicken + 3 Broccoli + 8 Beef + 25 Rice >= 101
 R2: 159 Chicken + 126 Broccoli + 230 Beef + 112 Rice >= 1701
Bounds
Generals
 Chicken Broccoli Beef Rice
End
